c Result of efficient AIG-to-CNF conversion using package CNF
p cnf 473 1652
-2 3 363 378 394 0
2 -394 0
2 -378 0
2 -3 0
2 -363 0
-3 274 358 0
-3 274 -329 0
-3 -4 274 0
3 -274 0
3 4 329 -358 0
-4 5 256 259 262 0
4 -262 0
4 -5 0
4 -259 0
4 -256 0
-5 6 43 252 253 0
-5 -6 43 -252 253 0
5 -253 0
5 -6 252 0
5 -43 0
5 6 -252 0
6 -7 -26 0
6 -7 -27 0
-6 7 0
-6 26 27 0
-7 467 8 0
7 -467 0
7 -8 0
8 9 -21 0
-8 -9 0
-8 21 0
-9 436 10 0
9 -436 0
9 -10 0
-10 11 17 19 20 0
10 -20 0
10 -11 0
10 -19 0
10 -17 0
-11 433 434 12 14 0
11 -433 0
11 -14 0
11 -12 0
11 -434 0
-12 425 431 432 13 0
12 -13 0
12 -432 0
12 -425 0
12 -431 0
-13 429 430 435 0
13 -429 0
13 -435 0
13 -430 0
-14 426 427 428 15 0
14 -15 0
14 -428 0
14 -426 0
14 -427 0
-15 421 422 16 0
15 -16 0
15 -422 0
15 -421 0
-16 417 418 423 424 0
16 -424 0
16 -423 0
16 -417 0
16 -418 0
-17 415 419 420 18 0
17 -18 0
17 -420 0
17 -415 0
17 -419 0
-18 413 414 0
18 -413 0
18 -414 0
-19 409 416 0
19 -409 0
19 -416 0
-20 410 411 412 0
20 -410 0
20 -412 0
20 -411 0
21 437 -22 0
-21 -437 0
-21 22 0
22 438 -23 0
22 -438 439 -440 0
-22 -438 -439 0
-22 438 23 0
-22 -438 440 0
23 -439 -24 0
23 439 -25 0
-23 439 25 0
-23 -439 24 0
24 -438 -440 0
24 -437 440 0
-24 437 440 0
-24 438 -440 0
25 -436 -440 0
25 -435 440 0
-25 435 440 0
-25 436 -440 0
26 -467 -8 0
-26 467 0
-26 8 0
27 -28 -34 0
27 -28 -35 0
-27 28 0
-27 34 35 0
-28 468 29 0
28 -468 0
28 -29 0
29 -30 9 0
-29 30 0
-29 -9 0
30 437 -31 0
-30 -437 0
-30 31 0
31 438 -32 0
-31 -438 0
-31 32 0
32 -438 -439 0
32 439 -33 0
32 -439 -440 0
-32 439 33 0
-32 438 -439 440 0
33 -437 -440 0
33 -436 440 0
-33 436 440 0
-33 437 -440 0
34 -468 -29 0
-34 468 0
-34 29 0
35 -36 -38 0
35 -36 -42 0
-35 36 0
-35 38 42 0
-36 469 37 0
36 -469 0
36 -37 0
37 437 438 -439 9 0
-37 -437 0
-37 -9 0
-37 439 0
-37 -438 0
38 -470 -39 0
-38 470 0
-38 39 0
39 -471 -40 0
-39 471 0
-39 40 0
40 9 -41 0
-40 -9 0
-40 41 0
41 437 438 439 -440 0
-41 440 0
-41 -439 0
-41 -437 0
-41 -438 0
42 -469 -37 0
-42 469 0
-42 37 0
-43 44 212 221 229 0
-43 44 -212 -221 229 0
43 -229 0
43 -212 221 0
43 -44 0
43 212 -221 0
44 45 -203 0
44 -45 203 0
-44 -45 -203 0
-44 45 203 0
45 -46 -69 0
45 -46 -70 0
-45 46 0
-45 69 70 0
-46 447 47 0
46 -447 0
46 -47 0
47 436 10 -54 0
47 -436 10 -48 0
-47 -10 0
-47 436 54 0
-47 -436 48 0
48 437 -50 0
48 -437 438 -49 0
-48 -437 -438 0
-48 437 50 0
-48 -437 49 0
49 439 -440 0
-49 -439 0
-49 440 0
50 438 -51 0
50 -438 -23 0
-50 -438 23 0
-50 438 51 0
51 439 -52 0
51 -439 -53 0
-51 -439 53 0
-51 439 52 0
52 -432 -440 0
52 -431 440 0
-52 431 440 0
-52 432 -440 0
53 -434 -440 0
53 -433 440 0
-53 433 440 0
-53 434 -440 0
-54 -437 55 0
-54 437 62 0
54 -437 -55 0
54 437 -62 0
55 -438 -56 0
55 438 -59 0
-55 438 59 0
-55 -438 56 0
56 439 -57 0
56 -439 -58 0
-56 -439 58 0
-56 439 57 0
57 -428 -440 0
57 -427 440 0
-57 427 440 0
-57 428 -440 0
58 -430 -440 0
58 -429 440 0
-58 429 440 0
-58 430 -440 0
59 439 -60 0
59 -439 -61 0
-59 -439 61 0
-59 439 60 0
60 -424 -440 0
60 -423 440 0
-60 423 440 0
-60 424 -440 0
61 -426 -440 0
61 -425 440 0
-61 425 440 0
-61 426 -440 0
-62 -438 66 0
-62 438 63 0
62 438 -63 0
62 -438 -66 0
63 439 -64 0
63 -439 -65 0
-63 -439 65 0
-63 439 64 0
64 -416 -440 0
64 -415 440 0
-64 415 440 0
-64 416 -440 0
65 -418 -440 0
65 -417 440 0
-65 417 440 0
-65 418 -440 0
66 439 -67 0
66 -439 -68 0
-66 -439 68 0
-66 439 67 0
67 -420 -440 0
67 -419 440 0
-67 419 440 0
-67 420 -440 0
68 -422 -440 0
68 -421 440 0
-68 421 440 0
-68 422 -440 0
69 -447 -47 0
-69 447 0
-69 47 0
70 -71 -93 0
70 -71 -202 0
-70 71 0
-70 93 202 0
-71 448 72 0
71 -448 0
71 -72 0
72 436 10 -78 0
72 -436 10 -73 0
-72 -10 0
-72 -436 73 0
-72 436 78 0
73 437 -74 0
-73 -437 0
-73 74 0
74 -438 -439 0
74 438 -75 0
74 -438 -33 0
-74 438 75 0
-74 -438 439 33 0
75 439 -76 0
75 -439 -77 0
-75 -439 77 0
-75 439 76 0
76 -433 -440 0
76 -432 440 0
-76 432 440 0
-76 433 -440 0
77 -435 -440 0
77 -434 440 0
-77 434 440 0
-77 435 -440 0
78 437 -79 0
78 -437 -86 0
-78 -437 86 0
-78 437 79 0
79 -438 -80 0
79 438 -83 0
-79 438 83 0
-79 -438 80 0
80 439 -81 0
80 -439 -82 0
-80 -439 82 0
-80 439 81 0
81 -421 -440 0
81 -420 440 0
-81 420 440 0
-81 421 -440 0
82 -423 -440 0
82 -422 440 0
-82 422 440 0
-82 423 -440 0
83 -439 -84 0
83 439 -85 0
-83 439 85 0
-83 -439 84 0
84 -419 -440 0
84 -418 440 0
-84 418 440 0
-84 419 -440 0
85 -417 -440 0
85 -416 440 0
-85 416 440 0
-85 417 -440 0
86 -438 -87 0
86 438 -90 0
-86 438 90 0
-86 -438 87 0
87 439 -88 0
87 -439 -89 0
-87 -439 89 0
-87 439 88 0
88 -429 -440 0
88 -428 440 0
-88 428 440 0
-88 429 -440 0
89 -431 -440 0
89 -430 440 0
-89 430 440 0
-89 431 -440 0
90 439 -91 0
90 -439 -92 0
-90 -439 92 0
-90 439 91 0
91 -425 -440 0
91 -424 440 0
-91 424 440 0
-91 425 -440 0
92 -427 -440 0
92 -426 440 0
-92 426 440 0
-92 427 -440 0
93 -94 -107 0
93 -94 -108 0
-93 94 0
-93 107 108 0
-94 449 95 0
94 -449 0
94 -95 0
95 436 10 -100 0
95 -436 10 -96 0
-95 -10 0
-95 -436 96 0
-95 436 100 0
96 437 -97 0
-96 -437 0
-96 97 0
97 -438 -98 0
97 438 -99 0
-97 -438 98 0
-97 438 99 0
-98 438 439 -440 0
-98 437 439 440 0
98 -439 0
98 -437 440 0
98 -438 -440 0
99 439 -53 0
99 -439 -25 0
-99 -439 25 0
-99 439 53 0
100 437 -101 0
100 -437 -104 0
-100 -437 104 0
-100 437 101 0
101 438 -102 0
101 -438 -103 0
-101 -438 103 0
-101 438 102 0
102 439 -65 0
102 -439 -67 0
-102 -439 67 0
-102 439 65 0
103 439 -68 0
103 -439 -60 0
-103 -439 60 0
-103 439 68 0
104 -438 -105 0
104 438 -106 0
-104 438 106 0
-104 -438 105 0
105 439 -58 0
105 -439 -52 0
-105 -439 52 0
-105 439 58 0
106 -439 -57 0
106 439 -61 0
-106 439 61 0
-106 -439 57 0
107 -449 -95 0
-107 449 0
-107 95 0
108 -109 -121 0
108 -109 -122 0
-108 109 0
-108 121 122 0
-109 450 110 0
109 -450 0
109 -110 0
110 436 10 -114 0
110 -436 10 -111 0
-110 -10 0
-110 -436 111 0
-110 436 114 0
111 437 -112 0
-111 -437 0
-111 112 0
112 438 -113 0
112 -438 439 440 0
-112 -438 -439 0
-112 438 113 0
-112 -438 -440 0
113 -439 -33 0
113 439 -77 0
-113 439 77 0
-113 -439 33 0
114 437 -115 0
114 -437 -118 0
-114 -437 118 0
-114 437 115 0
115 438 -116 0
115 -438 -117 0
-115 -438 117 0
-115 438 116 0
116 439 -84 0
116 -439 -81 0
-116 -439 81 0
-116 439 84 0
117 439 -82 0
117 -439 -91 0
-117 -439 91 0
-117 439 82 0
118 438 -119 0
118 -438 -120 0
-118 -438 120 0
-118 438 119 0
119 439 -92 0
119 -439 -88 0
-119 -439 88 0
-119 439 92 0
120 -439 -76 0
120 439 -89 0
-120 439 89 0
-120 -439 76 0
121 -450 -110 0
-121 450 0
-121 110 0
122 -123 -128 0
122 -123 -129 0
-122 123 0
-122 128 129 0
-123 451 124 0
123 -451 0
123 -124 0
124 436 10 -125 0
124 -436 10 -21 0
-124 -10 0
-124 -436 21 0
-124 436 125 0
125 -437 -126 0
125 437 -127 0
-125 437 127 0
-125 -437 126 0
126 438 -56 0
126 -438 -51 0
-126 -438 51 0
-126 438 56 0
127 438 -66 0
127 -438 -59 0
-127 -438 59 0
-127 438 66 0
128 -451 -124 0
-128 451 0
-128 124 0
129 -130 -135 0
129 -130 -136 0
-129 130 0
-129 135 136 0
-130 452 131 0
130 -452 0
130 -131 0
131 436 10 -132 0
131 -436 -30 10 0
-131 -10 0
-131 -436 30 0
-131 436 132 0
132 -437 -133 0
132 437 -134 0
-132 437 134 0
-132 -437 133 0
133 -438 -75 0
133 438 -87 0
-133 438 87 0
-133 -438 75 0
134 438 -80 0
134 -438 -90 0
-134 -438 90 0
-134 438 80 0
135 -452 -131 0
-135 452 0
-135 131 0
136 -137 -143 0
136 -137 -144 0
-136 137 0
-136 143 144 0
-137 453 138 0
137 -453 0
137 -138 0
138 436 10 -140 0
138 -436 10 -139 0
-138 -10 0
-138 -436 139 0
-138 436 140 0
139 437 438 -439 0
-139 439 0
-139 -438 0
-139 -437 0
140 -437 -141 0
140 437 -142 0
-140 437 142 0
-140 -437 141 0
141 -438 -99 0
141 438 -105 0
-141 438 105 0
-141 -438 99 0
142 438 -103 0
142 -438 -106 0
-142 -438 106 0
-142 438 103 0
143 -453 -138 0
-143 453 0
-143 138 0
144 -145 -149 0
144 -145 -150 0
-144 145 0
-144 149 150 0
-145 454 146 0
145 -454 0
145 -146 0
146 -437 9 -148 0
146 437 9 -147 0
-146 -9 0
-146 -437 148 0
-146 437 147 0
147 438 -117 0
147 -438 -119 0
-147 -438 119 0
-147 438 117 0
148 -438 -113 0
148 438 -120 0
-148 438 120 0
-148 -438 113 0
149 -454 -146 0
-149 454 0
-149 146 0
150 -151 -154 0
150 -151 -155 0
-150 151 0
-150 154 155 0
-151 455 152 0
151 -455 0
151 -152 0
152 436 10 -153 0
152 -436 10 -41 0
-152 -10 0
-152 -436 41 0
-152 436 153 0
153 -437 -50 0
153 437 -55 0
-153 437 55 0
-153 -437 50 0
154 -455 -152 0
-154 455 0
-154 152 0
155 -156 -158 0
155 -156 -159 0
-155 156 0
-155 158 159 0
-156 456 157 0
156 -456 0
156 -157 0
157 437 9 -86 0
157 -437 9 -74 0
-157 -9 0
-157 -437 74 0
-157 437 86 0
158 -456 -157 0
-158 456 0
-158 157 0
159 -160 -163 0
159 -160 -164 0
-159 160 0
-159 163 164 0
-160 457 161 0
160 -457 0
160 -161 0
161 9 -162 0
-161 -9 0
-161 162 0
162 -437 -97 0
162 437 -104 0
-162 437 104 0
-162 -437 97 0
163 -457 -161 0
-163 457 0
-163 161 0
164 -165 -168 0
164 -165 -169 0
-164 165 0
-164 168 169 0
-165 458 166 0
165 -458 0
165 -166 0
166 9 -167 0
-166 -9 0
-166 167 0
167 -437 -112 0
167 437 -118 0
-167 437 118 0
-167 -437 112 0
168 -458 -166 0
-168 458 0
-168 166 0
169 -170 -173 0
169 -170 -174 0
-169 170 0
-169 173 174 0
-170 459 171 0
170 -459 0
170 -171 0
171 9 -172 0
-171 -9 0
-171 172 0
172 437 -126 0
172 -437 -22 0
-172 -437 22 0
-172 437 126 0
173 -459 -171 0
-173 459 0
-173 171 0
174 -175 -178 0
174 -175 -179 0
-174 175 0
-174 178 179 0
-175 460 176 0
175 -460 0
175 -176 0
176 9 -177 0
-176 -9 0
-176 177 0
177 -437 -31 0
177 437 -133 0
-177 437 133 0
-177 -437 31 0
178 -460 -176 0
-178 460 0
-178 176 0
179 -180 -184 0
179 -180 -185 0
-179 180 0
-179 184 185 0
-180 461 181 0
180 -461 0
180 -181 0
181 9 -182 0
-181 -9 0
-181 182 0
182 -437 -183 0
182 437 -141 0
-182 437 141 0
-182 -437 183 0
183 438 -439 0
183 -437 438 440 0
-183 -438 0
-183 439 -440 0
-183 437 439 0
184 -461 -181 0
-184 461 0
-184 181 0
185 -462 -186 0
-185 462 0
-185 186 0
186 -187 -189 0
186 -187 -190 0
-186 187 0
-186 189 190 0
-187 463 188 0
187 -463 0
187 -188 0
188 9 -48 0
-188 -9 0
-188 48 0
189 -463 -188 0
-189 463 0
-189 188 0
190 -191 -193 0
190 -191 -194 0
-190 191 0
-190 193 194 0
-191 464 192 0
191 -464 0
191 -192 0
192 9 -73 0
-192 -9 0
-192 73 0
193 -464 -192 0
-193 464 0
-193 192 0
194 -195 -197 0
194 -195 -201 0
-194 195 0
-194 197 201 0
-195 465 196 0
195 -465 0
195 -196 0
196 9 -96 0
-196 -9 0
-196 96 0
197 -198 -6 0
197 -198 -200 0
-197 198 0
-197 6 200 0
-198 466 199 0
198 -466 0
198 -199 0
199 9 -111 0
-199 -9 0
-199 111 0
200 -466 -199 0
-200 466 0
-200 199 0
201 -465 -196 0
-201 465 0
-201 196 0
202 -448 -72 0
-202 448 0
-202 72 0
203 -204 211 0
-203 204 0
-203 -211 0
-204 446 205 0
204 -446 0
204 -205 0
205 -436 10 -210 0
205 436 10 -206 0
-205 -10 0
-205 -436 210 0
-205 436 206 0
206 437 -207 0
206 -437 -147 0
-206 -437 147 0
-206 437 207 0
207 -438 -116 0
207 438 -208 0
-207 438 208 0
-207 -438 116 0
208 439 -209 0
208 -439 -85 0
-208 -439 85 0
-208 439 209 0
209 -415 -440 0
209 -414 440 0
-209 414 440 0
-209 415 -440 0
210 437 -148 0
-210 -437 0
-210 148 0
211 -446 -205 0
-211 446 0
-211 205 0
212 -213 -219 0
212 -213 -220 0
-212 213 0
-212 219 220 0
-213 445 214 0
213 -445 0
213 -214 0
214 436 10 -215 0
214 -436 10 -182 0
-214 -10 0
-214 436 215 0
-214 -436 182 0
-215 -437 142 0
-215 437 216 0
215 -437 -142 0
215 437 -216 0
-216 -438 102 0
-216 438 217 0
216 438 -217 0
216 -438 -102 0
217 439 -218 0
217 -439 -64 0
-217 -439 64 0
-217 439 218 0
218 -414 -440 0
218 -413 440 0
-218 413 440 0
-218 414 -440 0
219 -445 -214 0
-219 445 0
-219 214 0
220 -204 -45 0
220 -204 -211 0
-220 204 0
-220 45 211 0
221 -222 228 0
-221 222 0
-221 -228 0
-222 444 223 0
222 -444 0
222 -223 0
223 436 10 -224 0
223 -436 10 -177 0
-223 -10 0
-223 436 224 0
-223 -436 177 0
-224 -437 134 0
-224 437 225 0
224 -437 -134 0
224 437 -225 0
-225 438 226 0
-225 -438 83 0
225 -438 -83 0
225 438 -226 0
-226 -439 209 0
-226 439 227 0
226 439 -227 0
226 -439 -209 0
227 -413 -440 0
227 -412 440 0
-227 412 440 0
-227 413 -440 0
228 -444 -223 0
-228 444 0
-228 223 0
-229 230 236 244 0
-229 -230 -236 243 -244 0
-229 -230 -236 -243 244 0
229 230 -244 0
229 -230 236 0
229 -236 243 244 0
229 230 -236 0
229 -243 -244 0
-230 442 231 0
230 -442 0
230 -231 0
231 -436 10 -167 0
231 436 10 -232 0
-231 -10 0
-231 -436 167 0
-231 436 232 0
-232 -437 115 0
-232 437 233 0
232 -437 -115 0
232 437 -233 0
-233 438 234 0
-233 -438 208 0
233 -438 -208 0
233 438 -234 0
-234 439 235 0
-234 -439 227 0
234 -439 -227 0
234 439 -235 0
235 -411 -440 0
235 -410 440 0
-235 410 440 0
-235 411 -440 0
236 441 -237 0
236 -441 237 0
-236 -441 -237 0
-236 441 237 0
237 -436 10 -162 0
237 436 10 -238 0
-237 -10 0
-237 -436 162 0
-237 436 238 0
-238 437 239 0
-238 -437 101 0
238 -437 -101 0
238 437 -239 0
-239 438 240 0
-239 -438 217 0
239 -438 -217 0
239 438 -240 0
-240 439 242 0
-240 -439 241 0
240 -439 -241 0
240 439 -242 0
241 -412 -440 0
241 -411 440 0
-241 411 440 0
-241 412 -440 0
242 -410 -440 0
242 -409 440 0
-242 409 440 0
-242 410 -440 0
243 -442 -231 0
-243 442 0
-243 231 0
244 -245 -250 0
244 -245 -251 0
-244 245 0
-244 250 251 0
-245 443 246 0
245 -443 0
245 -246 0
246 436 10 -247 0
246 -436 10 -172 0
-246 -10 0
-246 436 247 0
-246 -436 172 0
-247 437 248 0
-247 -437 127 0
247 -437 -127 0
247 437 -248 0
-248 438 249 0
-248 -438 63 0
248 -438 -63 0
248 438 -249 0
-249 439 241 0
-249 -439 218 0
249 -439 -218 0
249 439 -241 0
250 -443 -246 0
-250 443 0
-250 246 0
251 -222 -212 0
251 -222 -228 0
-251 222 0
-251 212 228 0
252 466 -199 0
252 -466 199 0
-252 -466 -199 0
-252 466 199 0
-253 -27 197 -254 255 0
-253 27 -197 254 -255 0
-253 27 197 254 255 0
-253 -27 -197 -254 -255 0
253 -27 254 0
253 27 -254 0
253 197 -255 0
253 -197 255 0
254 467 -8 0
254 -467 8 0
-254 -467 -8 0
-254 467 8 0
255 465 -196 0
255 -465 196 0
-255 -465 -196 0
-255 465 196 0
-256 -122 251 257 -258 0
-256 -122 -251 -257 -258 0
-256 122 251 257 258 0
-256 122 -251 -257 258 0
256 122 -258 0
256 -122 258 0
256 -251 257 0
256 251 -257 0
257 -245 250 0
-257 245 0
-257 -250 0
258 -109 121 0
-258 109 0
-258 -121 0
-259 -93 220 -260 261 0
-259 93 -220 260 -261 0
-259 93 220 260 261 0
-259 -93 -220 -260 -261 0
259 -93 260 0
259 93 -260 0
259 220 -261 0
259 -220 261 0
260 -71 202 0
-260 71 0
-260 -202 0
261 -213 219 0
-261 213 0
-261 -219 0
-262 263 265 268 269 0
262 -269 0
262 -263 0
262 -268 0
262 -265 0
-263 137 144 264 0
-263 -137 -143 144 -264 0
-263 -137 143 -144 -264 0
263 137 -264 0
263 -144 264 0
263 -137 143 144 0
263 -143 -144 0
263 -137 264 0
264 -130 135 0
-264 130 0
-264 -135 0
-265 -169 155 -266 267 0
-265 169 -155 266 -267 0
-265 169 155 266 267 0
-265 -169 -155 -266 -267 0
265 -169 266 0
265 169 -266 0
265 155 -267 0
265 -155 267 0
266 458 -166 0
266 -458 166 0
-266 -458 -166 0
-266 458 166 0
267 -151 154 0
-267 151 0
-267 -154 0
-268 462 180 186 0
-268 462 -184 186 0
-268 -462 -180 184 -186 0
268 462 -186 0
268 -180 184 186 0
268 -462 180 0
268 -462 -184 0
-269 -108 -270 271 0
-269 108 270 271 0
269 -271 0
269 -108 270 0
269 108 -270 0
270 -94 107 0
-270 94 0
-270 -107 0
-271 -150 129 -272 273 0
-271 150 -129 272 -273 0
-271 150 129 272 273 0
-271 -150 -129 -272 -273 0
271 -150 272 0
271 150 -272 0
271 129 -273 0
271 -129 273 0
272 -145 149 0
-272 145 0
-272 -149 0
273 -123 128 0
-273 123 0
-273 -128 0
274 275 4 314 -316 0
-274 -275 0
-274 316 0
-274 -314 0
-274 -4 0
275 -28 292 -303 0
275 28 -276 292 0
-275 -292 0
-275 28 276 0
-275 -28 303 0
276 36 -277 0
276 -36 -285 0
-276 -36 285 0
-276 36 277 0
277 470 -278 0
277 -470 -282 0
-277 -470 282 0
-277 470 278 0
278 279 -280 0
278 -279 -281 0
-278 -279 281 0
-278 279 280 0
-279 471 40 0
279 -471 0
279 -40 0
280 -436 472 0
280 -435 -472 0
-280 436 472 0
-280 435 -472 0
281 -434 472 0
281 -433 -472 0
-281 434 472 0
-281 433 -472 0
282 279 -283 0
282 -279 -284 0
-282 -279 284 0
-282 279 283 0
283 -432 472 0
283 -431 -472 0
-283 432 472 0
-283 431 -472 0
284 -430 472 0
284 -429 -472 0
-284 430 472 0
-284 429 -472 0
285 470 -286 0
285 -470 -289 0
-285 -470 289 0
-285 470 286 0
286 279 -287 0
286 -279 -288 0
-286 -279 288 0
-286 279 287 0
287 -428 472 0
287 -427 -472 0
-287 428 472 0
-287 427 -472 0
288 -426 472 0
288 -425 -472 0
-288 426 472 0
-288 425 -472 0
289 279 -290 0
289 -279 -291 0
-289 -279 291 0
-289 279 290 0
290 -424 472 0
290 -423 -472 0
-290 424 472 0
-290 423 -472 0
291 -422 472 0
291 -421 -472 0
-291 422 472 0
-291 421 -472 0
-292 293 297 300 301 0
292 -301 0
292 -293 0
292 -300 0
292 -297 0
-293 294 296 123 109 0
293 -109 0
293 -294 0
293 -123 0
293 -296 0
-294 170 191 187 295 0
294 -295 0
294 -170 0
294 -187 0
294 -191 0
-295 462 195 198 0
295 -198 0
295 -195 0
295 -462 0
-296 245 180 7 0
296 -245 0
296 -180 0
296 -7 0
-297 298 151 204 94 0
297 -94 0
297 -298 0
297 -204 0
297 -151 0
-298 175 230 299 0
298 -175 0
298 -230 0
298 -299 0
-299 441 237 0
299 -441 0
299 -237 0
-300 137 213 130 222 0
300 -222 0
300 -137 0
300 -130 0
300 -213 0
-301 46 71 145 302 0
301 -302 0
301 -46 0
301 -145 0
301 -71 0
-302 165 160 156 0
302 -165 0
302 -160 0
302 -156 0
303 36 -304 0
303 470 -36 -311 0
-303 -36 311 0
-303 36 304 0
-303 -470 -36 0
304 470 -305 0
304 -470 -308 0
-304 -470 308 0
-304 470 305 0
305 279 -306 0
305 -279 -307 0
-305 -279 307 0
-305 279 306 0
306 -420 472 0
306 -419 -472 0
-306 420 472 0
-306 419 -472 0
307 -418 472 0
307 -417 -472 0
-307 418 472 0
-307 417 -472 0
308 279 -309 0
308 -279 -310 0
-308 -279 310 0
-308 279 309 0
309 -416 472 0
309 -415 -472 0
-309 416 472 0
-309 415 -472 0
310 -414 472 0
310 -413 -472 0
-310 414 472 0
-310 413 -472 0
311 279 -312 0
311 -279 -313 0
-311 -279 313 0
-311 279 312 0
312 -412 472 0
312 -411 -472 0
-312 412 472 0
-312 411 -472 0
313 -410 472 0
313 -409 -472 0
-313 410 472 0
-313 409 -472 0
-314 -70 -315 0
-314 70 315 0
314 70 -315 0
314 -70 315 0
315 -46 69 0
-315 46 0
-315 -69 0
316 -276 317 327 0
316 -303 317 -327 0
-316 -317 0
-316 303 -327 0
-316 276 327 0
-317 194 318 323 324 0
-317 -194 318 -323 324 0
317 -324 0
317 -194 323 0
317 -318 0
317 194 -323 0
-318 164 319 322 0
-318 -164 319 -322 0
318 -319 0
318 -164 322 0
318 164 -322 0
-319 -174 159 -320 321 0
-319 174 -159 320 -321 0
-319 174 159 320 321 0
-319 -174 -159 -320 -321 0
319 -174 320 0
319 174 -320 0
319 159 -321 0
319 -159 321 0
320 459 -171 0
320 -459 171 0
-320 -459 -171 0
-320 459 171 0
321 456 -157 0
321 -456 157 0
-321 -456 -157 0
-321 456 157 0
322 457 -161 0
322 -457 161 0
-322 -457 -161 0
-322 457 161 0
323 464 -192 0
323 -464 192 0
-323 -464 -192 0
-323 464 192 0
-324 -190 179 -325 326 0
-324 190 -179 325 -326 0
-324 190 179 325 326 0
-324 -190 -179 -325 -326 0
324 -190 325 0
324 190 -325 0
324 179 -326 0
324 -179 326 0
325 463 -188 0
325 -463 188 0
-325 -463 -188 0
-325 463 188 0
326 460 -176 0
326 -460 176 0
-326 -460 -176 0
-326 460 176 0
327 35 -328 0
327 -35 328 0
-327 -35 -328 0
-327 35 328 0
328 -28 34 0
-328 28 0
-328 -34 0
329 -28 292 -345 0
329 28 292 -330 0
-329 -292 0
-329 28 330 0
-329 -28 345 0
330 36 -331 0
330 -36 -338 0
-330 -36 338 0
-330 36 331 0
331 470 -332 0
331 -470 -335 0
-331 -470 335 0
-331 470 332 0
332 279 -333 0
332 -279 -334 0
-332 -279 334 0
-332 279 333 0
333 -439 472 0
333 -438 -472 0
-333 439 472 0
-333 438 -472 0
334 -437 472 0
334 -436 -472 0
-334 437 472 0
-334 436 -472 0
335 279 -336 0
335 -279 -337 0
-335 -279 337 0
-335 279 336 0
336 -435 472 0
336 -434 -472 0
-336 435 472 0
-336 434 -472 0
337 -433 472 0
337 -432 -472 0
-337 433 472 0
-337 432 -472 0
338 470 -339 0
338 -470 -342 0
-338 -470 342 0
-338 470 339 0
339 279 -340 0
339 -279 -341 0
-339 -279 341 0
-339 279 340 0
340 -431 472 0
340 -430 -472 0
-340 431 472 0
-340 430 -472 0
341 -429 472 0
341 -428 -472 0
-341 429 472 0
-341 428 -472 0
342 279 -343 0
342 -279 -344 0
-342 -279 344 0
-342 279 343 0
343 -427 472 0
343 -426 -472 0
-343 427 472 0
-343 426 -472 0
344 -425 472 0
344 -424 -472 0
-344 425 472 0
-344 424 -472 0
345 -36 -352 0
345 36 -346 349 0
-345 36 346 0
-345 -36 352 0
-345 36 -349 0
-346 470 279 347 0
-346 470 -279 348 0
346 -470 0
346 279 -347 0
346 -279 -348 0
347 -423 472 0
347 -422 -472 0
-347 423 472 0
-347 422 -472 0
348 -421 472 0
348 -420 -472 0
-348 421 472 0
-348 420 -472 0
349 -470 -279 351 0
349 -470 279 350 0
-349 470 0
-349 279 -350 0
-349 -279 -351 0
350 -419 472 0
350 -418 -472 0
-350 419 472 0
-350 418 -472 0
351 -417 472 0
351 -416 -472 0
-351 417 472 0
-351 416 -472 0
352 470 -353 0
352 -470 -356 0
-352 -470 356 0
-352 470 353 0
353 279 -354 0
353 -279 -355 0
-353 -279 355 0
-353 279 354 0
354 -415 472 0
354 -414 -472 0
-354 415 472 0
-354 414 -472 0
355 -413 472 0
355 -412 -472 0
-355 413 472 0
-355 412 -472 0
356 279 -357 0
356 -409 472 -279 0
-356 -472 -279 0
-356 279 357 0
-356 409 -279 0
357 -411 472 0
357 -410 -472 0
-357 411 472 0
-357 410 -472 0
358 314 317 -359 0
-358 -314 0
-358 -317 0
-358 359 0
359 -327 -345 0
359 327 -360 0
-359 327 360 0
-359 -327 345 0
360 -338 -361 0
360 -331 361 0
-360 331 361 0
-360 338 -361 0
361 38 -362 0
361 -38 362 0
-361 -38 -362 0
-361 38 362 0
362 -36 42 0
-362 36 0
-362 -42 0
363 4 314 364 -377 0
-363 377 0
-363 -4 0
-363 -314 0
-363 -364 0
364 -28 292 -372 0
364 28 292 -365 0
-364 -292 0
-364 28 365 0
-364 -28 372 0
365 36 -366 0
365 -36 -370 371 0
-365 -36 -371 0
-365 36 366 0
-365 -36 370 0
366 470 -367 0
366 -470 -369 0
-366 -470 369 0
-366 470 367 0
367 -279 -280 0
367 279 -368 0
-367 279 368 0
-367 -279 280 0
368 -438 472 0
368 -437 -472 0
-368 438 472 0
-368 437 -472 0
369 279 -281 0
369 -279 -283 0
-369 -279 283 0
-369 279 281 0
-370 470 279 284 0
-370 470 -279 287 0
370 -470 0
370 279 -284 0
370 -279 -287 0
371 -470 -279 290 0
371 -470 279 288 0
-371 470 0
-371 279 -288 0
-371 -279 -290 0
372 -36 -375 0
372 36 -373 374 0
-372 36 373 0
-372 -36 375 0
-372 36 -374 0
-373 470 279 291 0
-373 470 -279 306 0
373 -470 0
373 279 -291 0
373 -279 -306 0
374 -470 -279 309 0
374 -470 279 307 0
-374 470 0
-374 279 -307 0
-374 -279 -309 0
375 470 -376 0
375 -470 279 -313 0
-375 -470 -279 0
-375 470 376 0
-375 -470 313 0
376 279 -310 0
376 -279 -312 0
-376 -279 312 0
-376 279 310 0
377 317 -327 -372 0
377 317 327 -365 0
-377 -317 0
-377 -327 372 0
-377 327 365 0
378 4 314 379 -388 0
-378 388 0
-378 -4 0
-378 -314 0
-378 -379 0
379 -28 292 -385 0
379 28 292 -380 0
-379 -292 0
-379 28 380 0
-379 -28 385 0
380 36 -381 0
380 -36 -384 0
-380 -36 384 0
-380 36 381 0
381 -470 -278 0
381 470 -382 0
-381 470 382 0
-381 -470 278 0
382 -279 -368 0
382 279 -383 0
-382 279 383 0
-382 -279 368 0
383 -440 472 0
383 -439 -472 0
-383 440 472 0
-383 439 -472 0
384 470 -282 0
384 -470 -286 0
-384 -470 286 0
-384 470 282 0
385 36 -386 0
385 -36 -387 0
-385 -36 387 0
-385 36 386 0
386 470 -289 0
386 -470 -305 0
-386 -470 305 0
-386 470 289 0
387 470 -308 0
387 -470 -311 0
-387 -470 311 0
-387 470 308 0
388 317 327 -389 0
388 317 -327 -385 0
-388 -317 0
-388 -327 385 0
-388 327 389 0
389 -361 -384 0
389 361 -390 0
-389 361 390 0
-389 -361 384 0
390 -278 -391 0
390 391 -392 0
-390 278 -391 0
-390 391 392 0
391 470 -39 0
391 -470 39 0
-391 -470 -39 0
-391 470 39 0
392 -383 393 0
392 -368 -393 0
-392 383 393 0
-392 368 -393 0
393 -279 39 0
-393 279 0
-393 -39 0
394 4 314 395 -408 0
-394 408 0
-394 -4 0
-394 -314 0
-394 -395 0
395 -28 292 -402 0
395 28 292 -396 0
-395 -292 0
-395 28 396 0
-395 -28 402 0
396 36 -397 0
396 -36 -400 401 0
-396 -36 -401 0
-396 36 397 0
-396 -36 400 0
397 470 -398 0
397 -470 -399 0
-397 -470 399 0
-397 470 398 0
398 279 -334 0
398 -279 -336 0
-398 -279 336 0
-398 279 334 0
399 279 -337 0
399 -279 -340 0
-399 -279 340 0
-399 279 337 0
-400 470 279 341 0
-400 470 -279 343 0
400 -470 0
400 279 -341 0
400 -279 -343 0
401 -470 -279 347 0
401 -470 279 344 0
-401 470 0
-401 279 -344 0
-401 -279 -347 0
402 -36 -405 0
402 36 -403 404 0
-402 36 403 0
-402 -36 405 0
-402 36 -404 0
-403 470 279 348 0
-403 470 -279 350 0
403 -470 0
403 279 -348 0
403 -279 -350 0
404 -470 -279 354 0
404 -470 279 351 0
-404 470 0
-404 279 -351 0
-404 -279 -354 0
405 470 -407 0
405 -470 279 -406 0
-405 -470 -279 0
-405 470 407 0
-405 -470 406 0
406 -409 472 0
-406 409 0
-406 -472 0
407 279 -355 0
407 -279 -357 0
-407 -279 357 0
-407 279 355 0
408 317 -327 -402 0
408 317 327 -396 0
-408 -317 0
-408 -327 402 0
-408 327 396 0
-473 0
2 0

